%
% Rectangle placement problem.
%
% From the presentation
% Francois Clautiaux:
% "Exact methods for rectangle placement problems"
% http://contraintes.inria.fr/CPAIOR08/BPPC/Clautiaux.pdf
% page 5
% 
% Placing 6 rectangles:
%    A      B      C      D      E      F
%   (4,4), (8,4), (4,8), (4,4), (6,4), (8,4)
% into a (15,15) rectangle.
%
num_jobs = 6;
num_workers = 15; % height
%           A B C D E F
%           1 2 3 4 5 6
duration = [4,4,8,4,4,4];  % height
resource = [4,8,4,4,6,8];  % width
max_time = 15; % width
allow_idle = true;
collect_workers = true;
do_precendences = false;
num_precedences = 1;
precedences = array2d(1..num_precedences, 1..2, 
[ 
  0,0 % dummy precedence
]);

